(declare-fun temp682_1 () (_ BitVec 64))
(declare-fun var79569 () (_ BitVec 64))
(declare-fun k!0 () Bool)
(declare-fun ARGNAME_input1_NAMEEND_DIM () (_ BitVec 64))
(declare-fun ARGNAME_input2_NAMEEND_DIM () (_ BitVec 64))
(declare-fun temp682_2 () (_ BitVec 64))
(declare-fun var79623 () (_ BitVec 64))
(declare-fun var204300 () (_ BitVec 64))
(declare-fun temp682_4 () (_ BitVec 64))
(declare-fun temp682_3 () (_ BitVec 64))
(declare-fun var267251 () (_ BitVec 64))
(declare-fun var267252 () (_ BitVec 64))
(declare-fun temp682_5 () (_ BitVec 64))
(declare-fun temp682_6 () (_ BitVec 64))
(declare-fun var336917 () (_ BitVec 64))
(declare-fun var402464 () (_ BitVec 64))
(declare-fun var204318 () (_ BitVec 64))
(declare-fun temp682_7 () (_ BitVec 64))
(declare-fun var79724 () (_ BitVec 64))
(declare-fun temp682_8 () (_ BitVec 64))
(declare-fun temp682_9 () (_ BitVec 64))
(declare-fun ARGNAME_input1_NAMEEND_DIMSIZE
             ()
             (Array (_ BitVec 64) (_ BitVec 64)))
(declare-fun temp682_10 () (_ BitVec 64))
(declare-fun temp682_11 () (_ BitVec 64))
(declare-fun temp682_12 () (_ BitVec 64))
(declare-fun temp682_13 () (_ BitVec 64))
(declare-fun temp682_14 () (_ BitVec 64))
(declare-fun temp682_15 () (_ BitVec 64))
(declare-fun temp682_16 () (_ BitVec 64))
(declare-fun temp682_17 () (_ BitVec 64))
(declare-fun temp682_18 () (_ BitVec 64))
(declare-fun temp682_19 () (_ BitVec 64))
(declare-fun temp682_20 () (_ BitVec 64))
(declare-fun temp682_21 () (_ BitVec 64))
(declare-fun temp682_22 () (_ BitVec 64))
(declare-fun temp682_23 () (_ BitVec 64))
(declare-fun temp682_24 () (_ BitVec 64))
(declare-fun temp682_25 () (_ BitVec 64))
(declare-fun temp682_26 () (_ BitVec 64))
(declare-fun temp682_27 () (_ BitVec 64))
(declare-fun temp682_28 () (_ BitVec 64))
(declare-fun var79725 () (_ BitVec 64))
(declare-fun temp682_29 () (_ BitVec 64))
(declare-fun var66592 () (_ BitVec 64))
(declare-fun temp682_30 () (_ BitVec 64))
(declare-fun temp682_31 () (_ BitVec 64))
(declare-fun ARGNAME_weight_NAMEEND_DIMSIZE
             ()
             (Array (_ BitVec 64) (_ BitVec 64)))
(declare-fun temp682_32 () (_ BitVec 64))
(declare-fun temp682_33 () (_ BitVec 64))
(declare-fun temp682_34 () (_ BitVec 64))
(declare-fun temp682_35 () (_ BitVec 64))
(declare-fun temp682_36 () (_ BitVec 64))
(declare-fun temp682_37 () (_ BitVec 64))
(declare-fun temp682_38 () (_ BitVec 64))
(declare-fun temp682_39 () (_ BitVec 64))
(declare-fun temp682_40 () (_ BitVec 64))
(declare-fun temp682_41 () (_ BitVec 64))
(declare-fun temp682_42 () (_ BitVec 64))
(declare-fun temp682_43 () (_ BitVec 64))
(declare-fun temp682_44 () (_ BitVec 64))
(declare-fun temp682_45 () (_ BitVec 64))
(declare-fun temp682_46 () (_ BitVec 64))
(declare-fun temp682_47 () (_ BitVec 64))
(declare-fun temp682_48 () (_ BitVec 64))
(declare-fun ARGNAME_weight_NAMEEND_DIM () (_ BitVec 64))
(declare-fun temp682_49 () (_ BitVec 64))
(declare-fun temp682_50 () (_ BitVec 64))
(declare-fun var79727 () (_ BitVec 64))
(declare-fun var79728 () (_ BitVec 64))
(declare-fun temp682_51 () (_ BitVec 64))
(declare-fun temp682_52 () (_ BitVec 64))
(declare-fun var79776 () (_ BitVec 64))
(declare-fun temp682_53 () (_ BitVec 64))
(declare-fun temp682_54 () (_ BitVec 64))
(declare-fun ARGNAME_input2_NAMEEND_DIMSIZE
             ()
             (Array (_ BitVec 64) (_ BitVec 64)))
(declare-fun temp682_55 () (_ BitVec 64))
(declare-fun temp682_56 () (_ BitVec 64))
(declare-fun temp682_57 () (_ BitVec 64))
(declare-fun temp682_58 () (_ BitVec 64))
(declare-fun temp682_59 () (_ BitVec 64))
(declare-fun temp682_60 () (_ BitVec 64))
(declare-fun temp682_61 () (_ BitVec 64))
(declare-fun temp682_62 () (_ BitVec 64))
(declare-fun temp682_63 () (_ BitVec 64))
(declare-fun temp682_64 () (_ BitVec 64))
(declare-fun temp682_65 () (_ BitVec 64))
(declare-fun temp682_66 () (_ BitVec 64))
(declare-fun temp682_67 () (_ BitVec 64))
(declare-fun temp682_68 () (_ BitVec 64))
(declare-fun temp682_69 () (_ BitVec 64))
(declare-fun temp682_70 () (_ BitVec 64))
(declare-fun temp682_71 () (_ BitVec 64))
(declare-fun temp682_72 () (_ BitVec 64))
(declare-fun temp682_73 () (_ BitVec 64))
(declare-fun var79777 () (_ BitVec 64))
(declare-fun temp682_74 () (_ BitVec 64))
(declare-fun var66492 () (_ BitVec 64))
(declare-fun temp682_75 () (_ BitVec 64))
(declare-fun temp682_76 () (_ BitVec 64))
(declare-fun temp682_77 () (_ BitVec 64))
(declare-fun var79778 () (_ BitVec 64))
(declare-fun var79779 () (_ BitVec 64))
(declare-fun temp682_78 () (_ BitVec 64))
(declare-fun temp682_79 () (_ BitVec 64))
(declare-fun var65961 () (_ BitVec 64))
(declare-fun temp682_80 () (_ BitVec 64))
(declare-fun temp682_81 () (_ BitVec 64))
(declare-fun ARGNAME_bias_NAMEEND_DIMSIZE
             ()
             (Array (_ BitVec 64) (_ BitVec 64)))
(declare-fun temp682_82 () (_ BitVec 64))
(declare-fun temp682_83 () (_ BitVec 64))
(declare-fun temp682_84 () (_ BitVec 64))
(declare-fun temp682_85 () (_ BitVec 64))
(declare-fun temp682_86 () (_ BitVec 64))
(declare-fun temp682_87 () (_ BitVec 64))
(declare-fun temp682_88 () (_ BitVec 64))
(declare-fun temp682_89 () (_ BitVec 64))
(declare-fun temp682_90 () (_ BitVec 64))
(declare-fun temp682_91 () (_ BitVec 64))
(declare-fun temp682_92 () (_ BitVec 64))
(declare-fun temp682_93 () (_ BitVec 64))
(declare-fun temp682_94 () (_ BitVec 64))
(declare-fun temp682_95 () (_ BitVec 64))
(declare-fun temp682_96 () (_ BitVec 64))
(declare-fun temp682_97 () (_ BitVec 64))
(declare-fun temp682_98 () (_ BitVec 64))
(declare-fun ARGNAME_bias_NAMEEND_DIM () (_ BitVec 64))
(declare-fun temp682_99 () (_ BitVec 64))
(declare-fun temp682_100 () (_ BitVec 64))
(declare-fun var79827 () (_ BitVec 64))
(declare-fun temp682_101 () (_ BitVec 64))
(declare-fun temp682_102 () (_ BitVec 64))
(declare-fun temp682_103 () (_ BitVec 64))
(declare-fun temp682_104 () (_ BitVec 64))
(declare-fun var79828 () (_ BitVec 64))
(declare-fun var79829 () (_ BitVec 64))
(declare-fun temp682_105 () (_ BitVec 64))
(declare-fun temp682_106 () (_ BitVec 64))
(declare-fun temp682_107 () (_ BitVec 64))
(declare-fun temp682_108 () (_ BitVec 64))
(declare-fun temp682_109 () (_ BitVec 64))
(declare-fun var79903 () (_ BitVec 64))
(declare-fun temp682_110 () (_ BitVec 64))
(declare-fun var3023325 () (_ BitVec 64))
(declare-fun temp682_112 () (_ BitVec 64))
(declare-fun temp682_111 () (_ BitVec 64))
(declare-fun temp682_113 () (_ BitVec 64))
(declare-fun var67207 () (_ BitVec 64))
(declare-fun temp682_114 () (_ BitVec 64))
(declare-fun temp682_115 () (_ BitVec 64))
(declare-fun temp682_116 () (_ BitVec 64))
(declare-fun var79915 () (_ BitVec 64))
(declare-fun temp682_117 () (_ BitVec 64))
(declare-fun temp682_118 () (_ BitVec 64))
(declare-fun temp682_119 () (_ BitVec 64))
(declare-fun temp682_120 () (_ BitVec 64))
(declare-fun var79938 () (_ BitVec 64))
(declare-fun temp682_122 () (_ BitVec 64))
(declare-fun temp682_121 () (_ BitVec 64))
(declare-fun temp682_124 () (_ BitVec 64))
(declare-fun temp682_123 () (_ BitVec 64))
(declare-fun var4533243 () (_ BitVec 64))
(declare-fun temp682_125 () (_ BitVec 64))
(declare-fun var4533374 () (_ BitVec 64))
(declare-fun temp682_127 () (_ BitVec 64))
(declare-fun temp682_126 () (_ BitVec 64))
(declare-fun temp682_128 () (_ BitVec 64))
(declare-fun var5318818 () (_ BitVec 64))
(declare-fun temp682_129 () (_ BitVec 64))
(declare-fun var5973063 () (_ BitVec 64))
(declare-fun temp682_131 () (_ BitVec 64))
(declare-fun temp682_130 () (_ BitVec 64))
(declare-fun temp682_132 () (_ BitVec 64))
(declare-fun var6957218 () (_ BitVec 64))
(declare-fun temp682_133 () (_ BitVec 64))
(declare-fun var7611463 () (_ BitVec 64))
(declare-fun temp682_135 () (_ BitVec 64))
(declare-fun temp682_134 () (_ BitVec 64))
(declare-fun temp682_136 () (_ BitVec 64))
(declare-fun var8595618 () (_ BitVec 64))
(declare-fun temp682_137 () (_ BitVec 64))
(declare-fun var9249863 () (_ BitVec 64))
(declare-fun temp682_139 () (_ BitVec 64))
(declare-fun temp682_138 () (_ BitVec 64))
(declare-fun temp682_140 () (_ BitVec 64))
(declare-fun var10234018 () (_ BitVec 64))
(declare-fun temp682_141 () (_ BitVec 64))
(declare-fun var10888263 () (_ BitVec 64))
(declare-fun temp682_143 () (_ BitVec 64))
(declare-fun temp682_142 () (_ BitVec 64))
(declare-fun temp682_144 () (_ BitVec 64))
(declare-fun var11871253 () (_ BitVec 64))
(declare-fun var11936800 () (_ BitVec 64))
(declare-fun temp682_145 () (_ BitVec 64))
(declare-fun var4533542 () (_ BitVec 64))
(declare-fun temp682_146 () (_ BitVec 64))
(declare-fun var4533583 () (_ BitVec 64))
(declare-fun var4533617 () (_ BitVec 64))
(declare-fun var4533671 () (_ BitVec 64))
(declare-fun var15081033 () (_ BitVec 64))
(declare-fun var15408713 () (_ BitVec 64))
(declare-fun var15736393 () (_ BitVec 64))
(declare-fun temp682_147 () (_ BitVec 64))
(declare-fun ARGNAME_weight_NAMEEND_NUMELEMENT () (_ BitVec 64))
(declare-fun var4533720 () (_ BitVec 64))
(declare-fun temp682_148 () (_ BitVec 64))
(declare-fun var16850505 () (_ BitVec 64))
(declare-fun temp682_150 () (_ BitVec 64))
(declare-fun temp682_149 () (_ BitVec 64))
(declare-fun temp682_151 () (_ BitVec 64))
(declare-fun var17310741 () (_ BitVec 64))
(declare-fun var17376288 () (_ BitVec 64))
(declare-fun var17772587 () (_ BitVec 64))
(declare-fun temp682_152 () (_ BitVec 64))
(declare-fun var17772589 () (_ BitVec 64))
(declare-fun var17838123 () (_ BitVec 64))
(declare-fun temp682_153 () (_ BitVec 64))
(declare-fun var17838125 () (_ BitVec 64))
(declare-fun var18362411 () (_ BitVec 64))
(declare-fun temp682_154 () (_ BitVec 64))
(declare-fun var18362413 () (_ BitVec 64))
(declare-fun temp682_155 () (_ BitVec 64))
(declare-fun var19735623 () (_ BitVec 64))
(declare-fun temp682_157 () (_ BitVec 64))
(declare-fun temp682_156 () (_ BitVec 64))
(declare-fun temp682_158 () (_ BitVec 64))
(declare-fun var20522005 () (_ BitVec 64))
(declare-fun temp682_159 () (_ BitVec 64))
(declare-fun var18683626 () (_ BitVec 64))
(declare-fun var18683596 () (_ BitVec 64))
(declare-fun var18683595 () (_ BitVec 64))
(declare-fun temp682_161 () (_ BitVec 64))
(declare-fun temp682_160 () (_ BitVec 64))
(declare-fun temp682_163 () (_ BitVec 64))
(declare-fun temp682_162 () (_ BitVec 64))
(declare-fun temp682_164 () (_ BitVec 64))
(declare-fun var18684037 () (_ BitVec 64))
(declare-fun var18684116 () (_ BitVec 64))
(declare-fun var18684135 () (_ BitVec 64))
(declare-fun temp682_166 () (_ BitVec 64))
(declare-fun temp682_165 () (_ BitVec 64))
(declare-fun temp682_168 () (_ BitVec 64))
(declare-fun temp682_167 () (_ BitVec 64))
(assert (= var79569
   (ite (= ARGNAME_input1_NAMEEND_DIM ARGNAME_input2_NAMEEND_DIM)
        #x0000000000000001
        #x0000000000000000)))
(assert (= temp682_1 #x0000000000000001))
(assert (= var79569 temp682_1))
(assert (= temp682_2 #xffffffffffffffff))
(assert (= var79623 (bvadd ARGNAME_input1_NAMEEND_DIM temp682_2)))
(assert (= var204300 var79623))
(assert (= temp682_4 #x0000000000000000))
(assert (= temp682_3 temp682_4))
(assert (= var267251 var204300))
(assert (= var267252
   (ite (bvslt temp682_3 var267251) #x0000000000000001 #x0000000000000000)))
(assert (= temp682_5 (ite (= var267252 #x0000000000000001) var204300 temp682_3)))
(assert (= temp682_6 #x0000000000000000))
(assert (= var336917 temp682_6))
(assert (= var402464 var336917))
(assert (= var204318 var402464))
(assert (= temp682_7 #xffffffffffffffff))
(assert (= var79724 (bvadd ARGNAME_input1_NAMEEND_DIM temp682_7)))
(assert (= temp682_8 #x0000000000000000))
(assert (= temp682_9 temp682_8))
(assert (= temp682_10 (select ARGNAME_input1_NAMEEND_DIMSIZE temp682_9)))
(assert (= temp682_11 #x0000000000000001))
(assert (= temp682_12 temp682_11))
(assert (= temp682_13 (select ARGNAME_input1_NAMEEND_DIMSIZE temp682_12)))
(assert (= temp682_14 #x0000000000000002))
(assert (= temp682_15 temp682_14))
(assert (= temp682_16 (select ARGNAME_input1_NAMEEND_DIMSIZE temp682_15)))
(assert (= temp682_17 #x0000000000000003))
(assert (= temp682_18 temp682_17))
(assert (= temp682_19 (select ARGNAME_input1_NAMEEND_DIMSIZE temp682_18)))
(assert (= temp682_20 #x0000000000000004))
(assert (= temp682_21 temp682_20))
(assert (= temp682_22 (select ARGNAME_input1_NAMEEND_DIMSIZE temp682_21)))
(assert (= temp682_23 #x0000000000000005))
(assert (= temp682_24 temp682_23))
(assert (= temp682_25 (select ARGNAME_input1_NAMEEND_DIMSIZE temp682_24)))
(assert (= temp682_26 #x0000000000000000))
(assert (= temp682_27
   (ite (bvslt var79724 temp682_26)
        (bvadd ARGNAME_input1_NAMEEND_DIM var79724)
        var79724)))
(assert (= temp682_28 (select ARGNAME_input1_NAMEEND_DIMSIZE temp682_27)))
(assert (= var79725 temp682_28))
(assert (bvslt (ite (bvslt var79724 temp682_26)
            (bvadd ARGNAME_input1_NAMEEND_DIM var79724)
            var79724)
       ARGNAME_input1_NAMEEND_DIM))
(assert (= temp682_29 #x0000000000000001))
(assert (= var66592 temp682_29))
(assert (= temp682_30 #x0000000000000000))
(assert (= temp682_31 temp682_30))
(assert (= temp682_32 (select ARGNAME_weight_NAMEEND_DIMSIZE temp682_31)))
(assert (= temp682_33 #x0000000000000001))
(assert (= temp682_34 temp682_33))
(assert (= temp682_35 (select ARGNAME_weight_NAMEEND_DIMSIZE temp682_34)))
(assert (= temp682_36 #x0000000000000002))
(assert (= temp682_37 temp682_36))
(assert (= temp682_38 (select ARGNAME_weight_NAMEEND_DIMSIZE temp682_37)))
(assert (= temp682_39 #x0000000000000003))
(assert (= temp682_40 temp682_39))
(assert (= temp682_41 (select ARGNAME_weight_NAMEEND_DIMSIZE temp682_40)))
(assert (= temp682_42 #x0000000000000004))
(assert (= temp682_43 temp682_42))
(assert (= temp682_44 (select ARGNAME_weight_NAMEEND_DIMSIZE temp682_43)))
(assert (= temp682_45 #x0000000000000005))
(assert (= temp682_46 temp682_45))
(assert (= temp682_47 (select ARGNAME_weight_NAMEEND_DIMSIZE temp682_46)))
(assert (= temp682_48 #x0000000000000000))
(assert (= temp682_49
   (ite (bvslt var66592 temp682_48)
        (bvadd ARGNAME_weight_NAMEEND_DIM var66592)
        var66592)))
(assert (= temp682_50 (select ARGNAME_weight_NAMEEND_DIMSIZE temp682_49)))
(assert (= var79727 temp682_50))
(assert (bvslt (ite (bvslt var66592 temp682_48)
            (bvadd ARGNAME_weight_NAMEEND_DIM var66592)
            var66592)
       ARGNAME_weight_NAMEEND_DIM))
(assert (= var79728 (ite (= var79725 var79727) #x0000000000000001 #x0000000000000000)))
(assert (= temp682_51 #x0000000000000001))
(assert (= var79728 temp682_51))
(assert (= temp682_52 #xffffffffffffffff))
(assert (= var79776 (bvadd ARGNAME_input2_NAMEEND_DIM temp682_52)))
(assert (= temp682_53 #x0000000000000000))
(assert (= temp682_54 temp682_53))
(assert (= temp682_55 (select ARGNAME_input2_NAMEEND_DIMSIZE temp682_54)))
(assert (= temp682_56 #x0000000000000001))
(assert (= temp682_57 temp682_56))
(assert (= temp682_58 (select ARGNAME_input2_NAMEEND_DIMSIZE temp682_57)))
(assert (= temp682_59 #x0000000000000002))
(assert (= temp682_60 temp682_59))
(assert (= temp682_61 (select ARGNAME_input2_NAMEEND_DIMSIZE temp682_60)))
(assert (= temp682_62 #x0000000000000003))
(assert (= temp682_63 temp682_62))
(assert (= temp682_64 (select ARGNAME_input2_NAMEEND_DIMSIZE temp682_63)))
(assert (= temp682_65 #x0000000000000004))
(assert (= temp682_66 temp682_65))
(assert (= temp682_67 (select ARGNAME_input2_NAMEEND_DIMSIZE temp682_66)))
(assert (= temp682_68 #x0000000000000005))
(assert (= temp682_69 temp682_68))
(assert (= temp682_70 (select ARGNAME_input2_NAMEEND_DIMSIZE temp682_69)))
(assert (= temp682_71 #x0000000000000000))
(assert (= temp682_72
   (ite (bvslt var79776 temp682_71)
        (bvadd ARGNAME_input2_NAMEEND_DIM var79776)
        var79776)))
(assert (= temp682_73 (select ARGNAME_input2_NAMEEND_DIMSIZE temp682_72)))
(assert (= var79777 temp682_73))
(assert (bvslt (ite (bvslt var79776 temp682_71)
            (bvadd ARGNAME_input2_NAMEEND_DIM var79776)
            var79776)
       ARGNAME_input2_NAMEEND_DIM))
(assert (= temp682_74 #x0000000000000002))
(assert (= var66492 temp682_74))
(assert (= temp682_75 #x0000000000000000))
(assert (= temp682_76
   (ite (bvslt var66492 temp682_75)
        (bvadd ARGNAME_weight_NAMEEND_DIM var66492)
        var66492)))
(assert (= temp682_77 (select ARGNAME_weight_NAMEEND_DIMSIZE temp682_76)))
(assert (= var79778 temp682_77))
(assert (bvslt (ite (bvslt var66492 temp682_75)
            (bvadd ARGNAME_weight_NAMEEND_DIM var66492)
            var66492)
       ARGNAME_weight_NAMEEND_DIM))
(assert (= var79779 (ite (= var79777 var79778) #x0000000000000001 #x0000000000000000)))
(assert (= temp682_78 #x0000000000000001))
(assert (= var79779 temp682_78))
(assert (= temp682_79 #x0000000000000000))
(assert (= var65961 temp682_79))
(assert (= temp682_80 #x0000000000000000))
(assert (= temp682_81 temp682_80))
(assert (= temp682_82 (select ARGNAME_bias_NAMEEND_DIMSIZE temp682_81)))
(assert (= temp682_83 #x0000000000000001))
(assert (= temp682_84 temp682_83))
(assert (= temp682_85 (select ARGNAME_bias_NAMEEND_DIMSIZE temp682_84)))
(assert (= temp682_86 #x0000000000000002))
(assert (= temp682_87 temp682_86))
(assert (= temp682_88 (select ARGNAME_bias_NAMEEND_DIMSIZE temp682_87)))
(assert (= temp682_89 #x0000000000000003))
(assert (= temp682_90 temp682_89))
(assert (= temp682_91 (select ARGNAME_bias_NAMEEND_DIMSIZE temp682_90)))
(assert (= temp682_92 #x0000000000000004))
(assert (= temp682_93 temp682_92))
(assert (= temp682_94 (select ARGNAME_bias_NAMEEND_DIMSIZE temp682_93)))
(assert (= temp682_95 #x0000000000000005))
(assert (= temp682_96 temp682_95))
(assert (= temp682_97 (select ARGNAME_bias_NAMEEND_DIMSIZE temp682_96)))
(assert (= temp682_98 #x0000000000000000))
(assert (= temp682_99
   (ite (bvslt var65961 temp682_98)
        (bvadd ARGNAME_bias_NAMEEND_DIM var65961)
        var65961)))
(assert (= temp682_100 (select ARGNAME_bias_NAMEEND_DIMSIZE temp682_99)))
(assert (= var79827 temp682_100))
(assert (bvslt (ite (bvslt var65961 temp682_98)
            (bvadd ARGNAME_bias_NAMEEND_DIM var65961)
            var65961)
       ARGNAME_bias_NAMEEND_DIM))
(assert (= temp682_101 #x0000000000000000))
(assert (= var65961 temp682_101))
(assert (= temp682_102 #x0000000000000000))
(assert (= temp682_103
   (ite (bvslt var65961 temp682_102)
        (bvadd ARGNAME_weight_NAMEEND_DIM var65961)
        var65961)))
(assert (= temp682_104 (select ARGNAME_weight_NAMEEND_DIMSIZE temp682_103)))
(assert (= var79828 temp682_104))
(assert (bvslt (ite (bvslt var65961 temp682_102)
            (bvadd ARGNAME_weight_NAMEEND_DIM var65961)
            var65961)
       ARGNAME_weight_NAMEEND_DIM))
(assert (= var79829 (ite (= var79827 var79828) #x0000000000000001 #x0000000000000000)))
(assert (= temp682_105 #x0000000000000001))
(assert (= var79829 temp682_105))
(assert (= temp682_106 #x0000000000000000))
(assert (= var65961 temp682_106))
(assert (= temp682_107 #x0000000000000000))
(assert (= temp682_108
   (ite (bvslt var65961 temp682_107)
        (bvadd ARGNAME_weight_NAMEEND_DIM var65961)
        var65961)))
(assert (= temp682_109 (select ARGNAME_weight_NAMEEND_DIMSIZE temp682_108)))
(assert (= var79903 temp682_109))
(assert (bvslt (ite (bvslt var65961 temp682_107)
            (bvadd ARGNAME_weight_NAMEEND_DIM var65961)
            var65961)
       ARGNAME_weight_NAMEEND_DIM))
(assert (= temp682_110 #x0000000000000001))
(assert (= var3023325 temp682_110))
(assert (= temp682_112 #xffffffffffffffff))
(assert (= temp682_111 temp682_112))
(assert (= temp682_113 #xffffffffffffffff))
(assert (= var67207 temp682_113))
(assert (= temp682_114 #x0000000000000000))
(assert (= temp682_115
   (ite (bvslt var67207 temp682_114)
        (bvadd ARGNAME_input1_NAMEEND_DIM var67207)
        var67207)))
(assert (= temp682_116 (select ARGNAME_input1_NAMEEND_DIMSIZE temp682_115)))
(assert (= var79915 temp682_116))
(assert (bvslt (ite (bvslt var67207 temp682_114)
            (bvadd ARGNAME_input1_NAMEEND_DIM var67207)
            var67207)
       ARGNAME_input1_NAMEEND_DIM))
(assert (= temp682_117 #xffffffffffffffff))
(assert (= var67207 temp682_117))
(assert (= temp682_118 #x0000000000000000))
(assert (= temp682_119
   (ite (bvslt var67207 temp682_118)
        (bvadd ARGNAME_input2_NAMEEND_DIM var67207)
        var67207)))
(assert (= temp682_120 (select ARGNAME_input2_NAMEEND_DIMSIZE temp682_119)))
(assert (= var79938 temp682_120))
(assert (bvslt (ite (bvslt var67207 temp682_118)
            (bvadd ARGNAME_input2_NAMEEND_DIM var67207)
            var67207)
       ARGNAME_input2_NAMEEND_DIM))
(assert (= temp682_122 #x0000000000000003))
(assert (= temp682_121 temp682_122))
(assert (= temp682_124 #x0000000000000003))
(assert (= temp682_123 temp682_124))
(assert (= var4533243 var66592))
(assert (= temp682_125 #x000000000000003f))
(assert (= var4533374 (bvlshr var4533243 temp682_125)))
(assert (= temp682_127 #x0000000000000000))
(assert (= temp682_126 temp682_127))
(assert (= temp682_128 #x0000000000000000))
(assert (= var5318818 temp682_128))
(assert (= temp682_129 #x0000000000000001))
(assert (= var5973063 temp682_129))
(assert (= temp682_131 #x0000000000000000))
(assert (= temp682_130 temp682_131))
(assert (= temp682_132 #x0000000000000000))
(assert (= var6957218 temp682_132))
(assert (= temp682_133 #x0000000000000001))
(assert (= var7611463 temp682_133))
(assert (= temp682_135 #x0000000000000000))
(assert (= temp682_134 temp682_135))
(assert (= temp682_136 #x0000000000000000))
(assert (= var8595618 temp682_136))
(assert (= temp682_137 #x0000000000000001))
(assert (= var9249863 temp682_137))
(assert (= temp682_139 #x0000000000000000))
(assert (= temp682_138 temp682_139))
(assert (= temp682_140 #x0000000000000000))
(assert (= var10234018 temp682_140))
(assert (= temp682_141 #x0000000000000001))
(assert (= var10888263 temp682_141))
(assert (= temp682_143 #x0000000000000000))
(assert (= temp682_142 temp682_143))
(assert (= temp682_144 #x0000000000000000))
(assert (= var11871253 temp682_144))
(assert (= var11936800 var11871253))
(assert (= temp682_145 #xffffffffffffffff))
(assert (= var4533542 temp682_145))
(assert (= temp682_146 #x0000000000000000))
(assert (= var4533583 temp682_146))
(assert (= var4533617 var4533583))
(assert (= var4533671 var4533617))
(assert (= var15081033 var4533243))
(assert (= var15408713 var4533243))
(assert (= var15736393 var4533243))
(assert (= temp682_147 #x0000000000000000))
(assert (= var4533720
   (ite (= ARGNAME_weight_NAMEEND_NUMELEMENT temp682_147)
        #x0000000000000001
        #x0000000000000000)))
(assert (= temp682_148 #x0000000000000000))
(assert (= var4533720 temp682_148))
(assert (= var16850505 var4533243))
(assert (= temp682_150 #x0000000000000000))
(assert (= temp682_149 temp682_150))
(assert (= temp682_151 #x0000000000000000))
(assert (= var17310741 temp682_151))
(assert (= var17376288 var17310741))
(assert (= var17772587 var4533243))
(assert (= temp682_152 #x0000000000000001))
(assert (= var17772589 temp682_152))
(assert (= var17838123 var4533243))
(assert (= temp682_153 #x0000000000000001))
(assert (= var17838125 temp682_153))
(assert (= var18362411 var4533243))
(assert (= temp682_154 #x0000000000000001))
(assert (= var18362413 temp682_154))
(assert (= temp682_155 #x0000000000000001))
(assert (= var19735623 temp682_155))
(assert (= temp682_157 #x0000000000000000))
(assert (= temp682_156 temp682_157))
(assert (= temp682_158 #x0000000000000000))
(assert (= var20522005 temp682_158))
(assert (= temp682_159 #x0000000000000001))
(assert (= var18683626 temp682_159))
(assert (= var18683596 var18683626))
(assert (= var18683595 var18683596))
(assert (= temp682_161 #x0000000000000001))
(assert (= temp682_160 temp682_161))
(assert (= temp682_163 #xffffffffffffffff))
(assert (= temp682_162 temp682_163))
(assert (= temp682_164 #x0000000000000000))
(assert (= var18684037 temp682_164))
(assert (= var18684116 var18684037))
(assert (= var18684135 var18684116))
(assert (= temp682_166 #x0000000000000003))
(assert (= temp682_165 temp682_166))
(assert (= temp682_168 #x0000000000000003))
(assert (= temp682_167 temp682_168))
(model-add temp682_1 () (_ BitVec 64) #x0000000000000001)
(model-add var79569 () (_ BitVec 64) #x0000000000000001)
(model-del k!0)
(model-add ARGNAME_input1_NAMEEND_DIM
           ()
           (_ BitVec 64)
           (ite k!0
                ARGNAME_input2_NAMEEND_DIM
                (bvnot ARGNAME_input2_NAMEEND_DIM)))





